<instance format="XCSP3" type="CSP">
  <variables>
    <var id="x0"> 0 1 3 4 12 </var>
    <var id="x1"> 0..2 </var>
    <var id="x2"> 0 2 3 7 12 </var>
    <var id="x3"> 1 3 4 7 12 </var>
    <var id="x4"> 1 7 </var>
    <var id="x5"> 2 4 12 </var>
    <var id="x6"> 2..4 </var>
    <var id="x7"> 1 3 4 10 </var>
    <var id="x8"> 1 5 10 </var>
    <var id="x9"> 1 3..5 </var>
    <var id="x10"> 11 13 </var>
    <var id="x11"> 5 13 </var>
    <var id="x12"> 1 3 11 13 </var>
    <var id="x13"> 3..5 11 </var>
    <var id="x14"> 0 1 3 10 14 </var>
    <var id="x15"> 0 1 10 14 </var>
    <var id="x16"> 0 3 7 10 </var>
    <var id="x17"> 6 7 14 </var>
    <var id="x18"> 6 14 </var>
    <var id="x19"> 1 3 6 7 10 </var>
    <var id="x20"> 3 6 14 </var>
    <var id="x21"> 1 6 7 9 12 </var>
    <var id="x22"> 6 7 9 12 </var>
    <var id="x23"> 1 5 </var>
    <var id="x24"> 1 5 7 9 10 </var>
    <var id="x25"> 5 7 9 12 </var>
    <var id="x26"> 1 6 12 </var>
    <var id="x27"> 5 6 </var>
    <var id="x28"> 2 9 12 14 </var>
    <var id="x29"> 2 5 10 14 </var>
    <var id="x30"> 3 5 14 </var>
    <var id="x31"> 3 10 12 </var>
    <var id="x32"> 2 12 14 </var>
    <var id="x33"> 5 9 12 14 </var>
    <var id="x34"> 3 12 </var>
    <var id="x35"> 1 2 6 7 9 12 </var>
    <var id="x36"> 1 2 </var>
    <var id="x37"> 1 4 6 7 </var>
    <var id="x38"> 6 7 9 12 </var>
    <var id="x39"> 7 9 12 </var>
    <var as="x21" id="x40"/>
    <var id="x41"> 1 4 6 7 </var>
    <var id="x42"> 1 4 12 14 </var>
    <var id="x43"> 1 7 12 14 </var>
    <var id="x44"> 1 4 8 11 </var>
    <var id="x45"> 4 8 11 12 14 </var>
    <var id="x46"> 1 7 12 </var>
    <var id="x47"> 1 4 7 11 </var>
    <var id="x48"> 1 8 11 12 </var>
    <var id="x49"> 1 6 14 </var>
    <var id="x50"> 6 9 11 12 14 </var>
    <var id="x51"> 1 11 12 </var>
    <var id="x52"> 1 9 14 </var>
    <var id="x53"> 6 8 11 12 14 </var>
    <var id="x54"> 0 1 6 9 12 </var>
    <var id="x55"> 1 6 11 </var>
    <var id="x56"> 1 6 8 11 12 </var>
    <var id="x57"> 1 3 10 14 </var>
    <var id="x58"> 1 2 14 </var>
    <var id="x59"> 2 3 10 </var>
    <var id="x60"> 1 3 5 11 </var>
    <var id="x61"> 1 5 10 14 </var>
    <var id="x62"> 1 5 10 </var>
    <var id="x63"> 1 3 10 11 </var>
    <var id="x64"> 0 10 12 </var>
    <var id="x65"> 0 7 10 12 </var>
    <var id="x66"> 8 11 13 </var>
    <var id="x67"> 7 10..12 </var>
    <var id="x68"> 7 10 11 </var>
    <var id="x69"> 8 11..13 </var>
    <var id="x70"> 11 </var>
    <var id="x71"> 1 6 9 </var>
    <var id="x72"> 1 3 4 6 </var>
    <var id="x73"> 6 9 13 </var>
    <var id="x74"> 1 3 4 8 13 </var>
    <var id="x75"> 1 9 13 </var>
    <var id="x76"> 8 9 13 </var>
    <var id="x77"> 1 6 9 </var>
    <var id="x78"> 5 14 </var>
    <var id="x79"> 3 7 12 </var>
    <var id="x80"> 3..5 13 </var>
    <var id="x81"> 3 4 7 12 </var>
    <var id="x82"> 5 7 12..14 </var>
    <var id="x83"> 5 7 12 </var>
    <var id="x84"> 3..5 14 </var>
    <var id="x85"> 1 10 14 </var>
    <var id="x86"> 1 2 8 10 14 </var>
    <var id="x87"> 2 7 10 </var>
    <var id="x88"> 1 6 7 14 </var>
    <var id="x89"> 1 7 10 </var>
    <var id="x90"> 1 6 7 10 </var>
    <var id="x91"> 1 6 8 </var>
    <var id="x92"> 3 9 </var>
    <var id="x93"> 6 9 11 14 </var>
    <var id="x94"> 3..5 11 </var>
    <var id="x95"> 3 4 11 </var>
    <var id="x96"> 5 9 14 </var>
    <var id="x97"> 4 6 11 14 </var>
    <var id="x98"> 3 4 6 11 </var>
    <var id="x99"> 6 7 12 14 </var>
    <var id="x100"> 5..7 14 </var>
    <var id="x101"> 5 7 13 14 </var>
    <var id="x102"> 6 11 12 14 </var>
    <var as="x82" id="x103"/>
    <var id="x104"> 5..7 12 </var>
    <var id="x105"> 5 6 11 14 </var>
  </variables>
  <constraints>
    <group>
      <allDifferent> %... </allDifferent>
      <args> x0 x1 x2 x3 x4 x5 x6 </args>
      <args> x7 x8 x9 x10 x11 x12 x13 </args>
      <args> x14 x15 x16 x17 x18 x19 x20 </args>
      <args> x21 x22 x23 x24 x25 x26 x27 </args>
      <args> x28 x29 x30 x31 x32 x33 x34 </args>
      <args> x35 x36 x37 x38 x39 x40 x41 </args>
      <args> x42 x43 x44 x45 x46 x47 x48 </args>
      <args> x49 x50 x51 x52 x53 x54 x55 x56 </args>
      <args> x57 x58 x59 x60 x61 x62 x63 </args>
      <args> x64 x65 x66 x67 x68 x69 x70 </args>
      <args> x71 x72 x73 x74 x75 x76 x77 </args>
      <args> x78 x79 x80 x81 x82 x83 x84 </args>
      <args> x85 x86 x87 x88 x89 x90 x91 </args>
      <args> x92 x93 x94 x95 x96 x97 x98 </args>
      <args> x99 x100 x101 x102 x103 x104 x105 </args>
      <args> x0 x7 x14 x42 x57 x64 x85 </args>
      <args> x21 x28 x35 x43 x58 x71 x99 </args>
      <args> x1 x8 x15 x29 x36 x78 x86 </args>
      <args> x2 x16 x59 x65 x79 x87 x92 </args>
      <args> x9 x30 x37 x49 x72 x88 x100 </args>
      <args> x10 x17 x22 x38 x50 x73 x93 </args>
      <args> x23 x44 x60 x66 x74 x80 x94 </args>
      <args> x3 x31 x51 x67 x81 x89 x95 </args>
      <args> x4 x24 x52 x61 x75 x96 x101 </args>
      <args> x5 x18 x32 x45 x53 x97 x102 </args>
      <args> x11 x25 x33 x39 x76 x82 x103 </args>
      <args> x40 x46 x54 x62 x77 x83 x90 x104 </args>
      <args> x19 x41 x47 x55 x63 x68 x98 </args>
      <args> x12 x26 x34 x48 x56 x69 x91 </args>
      <args> x6 x13 x20 x27 x70 x84 x105 </args>
    </group>
  </constraints>
</instance>

